
******************************************************************************
This program contains Ipopt, a library for large-scale nonlinear optimization.
 Ipopt is released as open source code under the Eclipse Public License (EPL).
         For more information visit http://projects.coin-or.org/Ipopt

This version of Ipopt was compiled from source code available at
    https://github.com/IDAES/Ipopt as part of the Institute for the Design of
    Advanced Energy Systems Process Systems Engineering Framework (IDAES PSE
    Framework) Copyright (c) 2018-2019. See https://github.com/IDAES/idaes-pse.

This version of Ipopt was compiled using HSL, a collection of Fortran codes
    for large-scale scientific computation.  All technical papers, sales and
    publicity material resulting from use of the HSL codes within IPOPT must
    contain the following acknowledgement:
        HSL, a collection of Fortran codes for large-scale scientific
        computation. See http://www.hsl.rl.ac.uk.
******************************************************************************

This is Ipopt version 3.13.2, running with linear solver ma27.

Number of nonzeros in equality constraint Jacobian...:      928
Number of nonzeros in inequality constraint Jacobian.:        0
Number of nonzeros in Lagrangian Hessian.............:      806

Total number of variables............................:      403
                     variables with only lower bounds:      124
                variables with lower and upper bounds:      217
                     variables with only upper bounds:        0
Total number of equality constraints.................:      402
Total number of inequality constraints...............:        0
        inequality constraints with only lower bounds:        0
   inequality constraints with lower and upper bounds:        0
        inequality constraints with only upper bounds:        0

iter    objective    inf_pr   inf_du lg(mu)  ||d||  lg(rg) alpha_du alpha_pr  ls
   0  0.0000000e+00 1.42e+00 1.58e-14  -1.0 0.00e+00    -  0.00e+00 0.00e+00   0
   1  2.3106914e-01 1.38e+00 2.78e+05  -1.0 7.17e+04    -  4.87e-01 6.30e-01h  1
   2  2.3406955e-01 1.36e+00 2.73e+05  -1.0 3.22e+04    -  5.84e-01 1.48e-02h  1
   3  8.2102458e-01 7.30e-01 1.96e+05  -1.0 1.61e+05    -  4.92e-01 2.78e-01h  1
   4  9.7711627e-01 6.99e-01 1.88e+05  -1.0 1.27e+05    -  6.64e-03 4.29e-02h  1
   5  1.1611041e+00 6.67e-01 1.80e+05  -1.0 1.25e+05    -  5.31e-01 4.58e-02h  1
   6  9.5629442e+00 7.71e-02 4.06e+04  -1.0 1.20e+05    -  8.22e-02 9.90e-01h  1
   7  1.0573772e+01 3.56e-03 1.35e+03  -1.0 9.31e+03    -  9.25e-01 9.90e-01h  1
   8  1.0589945e+01 4.19e-05 2.90e+03  -1.0 1.44e+02    -  9.83e-01 9.90e-01h  1
   9  1.0592756e+01 4.06e-05 2.64e+07  -1.0 8.30e+02    -  6.66e-01 3.09e-02f  6
iter    objective    inf_pr   inf_du lg(mu)  ||d||  lg(rg) alpha_du alpha_pr  ls
  10  1.1182246e+01 4.25e-04 2.06e+07  -1.0 4.29e+04    -  6.37e-02 1.24e-01f  4
  11  1.1257055e+01 1.79e-05 2.06e+05  -1.0 6.71e+02    -  9.90e-01 9.90e-01h  1
  12  1.1346932e+01 8.06e-06 1.36e+06  -1.0 8.02e+02    -  9.90e-01 9.90e-01h  1
  13  1.0966662e+01 1.50e-04 6.13e+10  -1.7 9.15e+03    -  9.96e-01 3.70e-01f  2
  14  1.0592306e+01 6.93e-05 6.80e+10  -1.7 4.94e+03    -  1.00e+00 6.87e-01H  1
  15  1.0640239e+01 6.37e-06 5.64e+09  -1.7 4.42e+02    -  1.00e+00 9.90e-01h  1
In iteration 15, 31 Slacks too small, adjusting variable bounds
  16  1.0621166e+01 6.96e-07 4.96e+11  -1.7 1.76e+02    -  1.00e+00 9.90e-01h  1
  17  1.0620054e+01 2.04e-09 7.08e-03  -1.7 1.01e+01    -  1.00e+00 1.00e+00h  1
  18  1.0589044e+01 6.23e-07 2.56e+11  -9.0 4.27e+02    -  9.99e-01 6.63e-01F  1
  19  1.0589045e+01 4.80e-12 9.39e+02  -9.0 1.52e-02    -  1.00e+00 1.00e+00h  1
iter    objective    inf_pr   inf_du lg(mu)  ||d||  lg(rg) alpha_du alpha_pr  ls
  20  1.0589045e+01 1.88e-12 6.51e-06  -9.0 2.19e-07    -  1.00e+00 2.50e-01h  3
  21  1.0589045e+01 2.44e-12 6.50e-06  -9.0 1.38e-07    -  1.00e+00 1.95e-03h 10
  22  1.0589045e+01 4.17e-12 7.28e-12  -9.0 1.62e-07    -  1.00e+00 1.00e+00H  1

Number of Iterations....: 22

                                   (scaled)                 (unscaled)
Objective...............:   1.0589045110555702e+01    1.0589045110555702e+01
Dual infeasibility......:   7.2759576141834259e-12    7.2759576141834259e-12
Constraint violation....:   4.1717740373314882e-12    4.1717740373314882e-12
Complementarity.........:   9.0909090909090931e-10    9.0909090909090931e-10
Overall NLP error.......:   4.7722784601001757e-11    9.0909090909090931e-10


Number of objective function evaluations             = 55
Number of objective gradient evaluations             = 23
Number of equality constraint evaluations            = 55
Number of inequality constraint evaluations          = 0
Number of equality constraint Jacobian evaluations   = 23
Number of inequality constraint Jacobian evaluations = 0
Number of Lagrangian Hessian evaluations             = 22
Total CPU secs in IPOPT (w/o function evaluations)   =      0.032
Total CPU secs in NLP function evaluations           =      0.486

EXIT: Optimal Solution Found.
